 vasp.5.4.1 24Jun15 (build Nov 16 2016 17:59:42) complex

 executed on             LinuxIFC date 2018.02.17  19:12:43

 INCAR:
 POTCAR:    PAW_PBE Sr_sv 07Sep2000
 POTCAR:    PAW_PBE Ir 06Sep2000
 POTCAR:    PAW_PBE O 08Apr2002
 POTCAR:    PAW_PBE Sr_sv 07Sep2000
   VRHFIN =Sr: 4s4p5s

   TITEL  = PAW_PBE Sr_sv 07Sep2000
   POMASS =   87.620; ZVAL   =   10.000    mass and valenz
   ENMAX  =  229.353; ENMIN  =  172.014 eV

 POTCAR:    PAW_PBE Ir 06Sep2000
   VRHFIN =Ir: s1d8

   TITEL  = PAW_PBE Ir 06Sep2000
   POMASS =  192.220; ZVAL   =    9.000    mass and valenz
   ENMAX  =  210.864; ENMIN  =  158.148 eV

 POTCAR:    PAW_PBE O 08Apr2002
   VRHFIN =O: s2p4

   TITEL  = PAW_PBE O 08Apr2002
   POMASS =   16.000; ZVAL   =    6.000    mass and valenz
   ENMAX  =  400.000; ENMIN  =  300.000 eV

 Optimization of the real space projectors (old method)

 maximal supplied QI-value         = 15.12
 optimisation between [QCUT,QGAM] = [ 10.13, 20.41] = [ 28.73,116.64] Ry
 Optimized for a Real-space Cutoff    1.22 Angstroem

   l      QCUT      X(QCUT)   X(cont)   X(QGAM) max X(q)   W(low)/max W(high)/max e(spline)
   0     10.129     0.137     0.149    -0.000    11.565    0.41E-02    0.66E-04    0.86E-03
   0     10.129     0.234     0.255    -0.001    10.214    0.88E-02    0.14E-03    0.18E-02
   1     10.129   -35.656   -31.339     1.525   189.983    0.55E-01    0.14E-01    0.58E-02
   1     10.129    36.314    31.921    -1.550   193.105    0.55E-01    0.14E-01    0.58E-02
   2     10.129    25.762    15.294     3.373   115.941    0.14E+00    0.44E-01    0.20E-01
   2     10.129   -16.623    -9.911    -2.164    76.444    0.14E+00    0.43E-01    0.19E-01
 Optimization of the real space projectors (old method)

[...]

   l      QCUT      X(QCUT)   X(cont)   X(QGAM) max X(q)   W(low)/max W(high)/max e(spline)
   2     10.197   -31.373   -33.076     1.726   134.116    0.62E-01    0.20E-01    0.53E-02
   2     10.197    30.480    32.077    -1.658   130.192    0.61E-01    0.20E-01    0.52E-02
   0     10.197    -1.649     0.679    -0.654    60.310    0.21E+00    0.16E-01    0.27E-01
   0     10.197     1.018    -0.387     0.396    39.218    0.20E+00    0.15E-01    0.25E-01
   1     10.197     0.040     0.564     0.219    18.439    0.73E-01    0.20E-01    0.90E-02
   1     10.197     0.003    -0.275    -0.113    12.760    0.56E-01    0.15E-01    0.67E-02
 Optimization of the real space projectors (old method)

 maximal supplied QI-value         = 24.76
 optimisation between [QCUT,QGAM] = [ 10.15, 20.30] = [ 28.85,115.39] Ry
 Optimized for a Real-space Cutoff    1.22 Angstroem

   l      QCUT      X(QCUT)   X(cont)   X(QGAM) max X(q)   W(low)/max W(high)/max e(spline)
   0     10.150   -14.341   -14.305     0.008    20.381    0.29E-02    0.85E-03    0.29E-03
   0     10.150   -11.316   -11.286     0.006    15.268    0.31E-02    0.92E-03    0.31E-03
   1     10.150    -5.333    -5.321     0.004     5.964    0.26E-03    0.14E-02    0.28E-03
   1     10.150    -4.574    -4.561     0.003     5.382    0.21E-03    0.12E-02    0.23E-03
  PAW_PBE Sr_sv 07Sep2000               :
  PAW_PBE Ir 06Sep2000                  :
  PAW_PBE O 08Apr2002                   :

 POSCAR: Sr Ir2 O5
  positions in direct lattice
  velocities in cartesian coordinates
 exchange correlation table for  LEXCH =        8
   RHO(1)=    0.500       N(1)  =     2000
   RHO(2)=  100.500       N(2)  =     4000

 ion  position               nearest neighbor table
   1  0.462  0.054  0.116-  14 2.45  22 2.46  17 2.62  20 2.66  15 2.68  17 2.73  19 2.75  15 2.83
                             5 3.15   5 3.18   6 3.21   8 3.22   7 3.30   6 3.32   8 3.34   7 3.50
   2  0.120  0.472  0.376-  21 2.42  13 2.44  19 2.55  16 2.70  18 2.70  16 2.74  18 2.75  20 2.88
                             7 3.16   8 3.18   9 3.23   7 3.27   9 3.28  10 3.32   8 3.46  10 3.48
   3  0.440  0.952  0.616-  21 2.46  23 2.59  25 2.64  27 2.70  28 2.71  23 2.80  25 2.86  10 3.14
                            10 3.22  11 3.27  12 3.28  13 3.29   9 3.33  11 3.34   9 3.36  12 3.54
   4  0.096  0.536  0.884-  22 2.38  14 2.46  24 2.68  28 2.71  26 2.72  24 2.72  26 2.74  27 2.92
                             6 3.14   5 3.20   6 3.20  12 3.21  11 3.27  12 3.33   5 3.36  11 3.49
   5  0.949  0.015  0.005-  15 1.83  24 1.86  22 1.92  14 2.61   6 3.07   1 3.15   1 3.18   4 3.20
                             6 3.31   4 3.36
   6  0.606  0.542  0.997-  26 1.83  17 1.86  14 1.90   5 3.07   4 3.14   4 3.20   1 3.21   5 3.31
                             1 3.32
   7  0.005  0.985  0.253-  15 1.86  20 1.87  18 1.88  19 1.93   2 3.16   2 3.27   1 3.30   8 3.30
                             1 3.50
   8  0.570  0.539  0.248-  20 1.87  16 1.88  17 1.88  19 1.93   2 3.18   1 3.22   7 3.30   1 3.34
                             2 3.46
   9  0.643  0.457  0.499-  16 1.87  23 1.90  21 1.91  13 2.00  10 2.88  10 3.18   2 3.23   2 3.28
                             3 3.33   3 3.36
  10  0.931  0.991  0.503-  25 1.85  18 1.86  13 1.94   9 2.88   3 3.14   9 3.18   3 3.22   2 3.32
                             2 3.48
  11  0.551  0.461  0.750-  26 1.86  27 1.88  23 1.90  28 1.90   3 3.27   4 3.27  12 3.30   3 3.34
                             4 3.49
  12  0.991  0.022  0.754-  25 1.88  24 1.88  27 1.89  28 1.90   4 3.21   3 3.28  11 3.30   4 3.33
                             3 3.54
  13  0.975  0.624  0.520-  10 1.94   9 2.00   2 2.44   3 3.29
  14  0.379  0.816  0.975-   6 1.90   1 2.45   4 2.46   5 2.61
  15  0.978  0.958  0.128-   5 1.83   7 1.86   1 2.68   1 2.83
  16  0.624  0.529  0.374-   9 1.87   8 1.88   2 2.70   2 2.74
  17  0.578  0.565  0.121-   6 1.86   8 1.88   1 2.62   1 2.73
  18  0.969  0.976  0.379-  10 1.86   7 1.88   2 2.70   2 2.75
  19  0.296  0.772  0.259-   7 1.93   8 1.93   2 2.55   1 2.75
  20  0.781  0.258  0.239-   8 1.87   7 1.87   1 2.66   2 2.88
  21  0.382  0.212  0.477-   9 1.91   2 2.42   3 2.46
  22  0.161  0.309  0.023-   5 1.92   4 2.38   1 2.46
  23  0.572  0.432  0.623-  11 1.90   9 1.90   3 2.59   3 2.80
  24  0.961  0.032  0.880-   5 1.86  12 1.88   4 2.68   4 2.72
  25  0.962  0.039  0.627-  10 1.85  12 1.88   3 2.64   3 2.86
  26  0.592  0.469  0.876-   6 1.83  11 1.86   4 2.72   4 2.74
  27  0.758  0.751  0.744-  11 1.88  12 1.89   3 2.70   4 2.92
  28  0.278  0.232  0.755-  12 1.90  11 1.90   4 2.71   3 2.71

IMPORTANT INFORMATION: All symmetrisations will be switched off!
NOSYMM: (Re-)initialisation of all symmetry stuff for point group C_1.

 KPOINTS: janK

Automatic generation of k-mesh.
Space group operators:
 irot       det(A)        alpha          n_x          n_y          n_z        tau_x        tau_y        tau_z
    1     1.000000     0.000000     1.000000     0.000000     0.000000     0.000000     0.000000     0.000000

 Subroutine IBZKPT returns following result:

 Found     20 irreducible k-points:

 Following reciprocal coordinates:
            Coordinates               Weight
  0.000000  0.000000  0.000000      1.000000
  0.250000  0.000000  0.000000      2.000000
  0.500000  0.000000  0.000000      1.000000
  0.000000  0.250000  0.000000      2.000000
  0.250000  0.250000  0.000000      2.000000
  0.500000  0.250000  0.000000      2.000000
 -0.250000  0.250000  0.000000      2.000000
  0.000000  0.500000  0.000000      1.000000
  0.250000  0.500000  0.000000      2.000000
  0.500000  0.500000  0.000000      1.000000
  0.000000  0.000000  0.500000      1.000000
  0.250000  0.000000  0.500000      2.000000
  0.500000  0.000000  0.500000      1.000000
  0.000000  0.250000  0.500000      2.000000
  0.250000  0.250000  0.500000      2.000000
  0.500000  0.250000  0.500000      2.000000
 -0.250000  0.250000  0.500000      2.000000
  0.000000  0.500000  0.500000      1.000000
  0.250000  0.500000  0.500000      2.000000
  0.500000  0.500000  0.500000      1.000000

 Following cartesian coordinates:
            Coordinates               Weight
  0.000000  0.000000  0.000000      1.000000
  0.046286  0.000102  0.001242      2.000000
  0.092572  0.000205  0.002484      1.000000
  0.000071  0.048082 -0.000006      2.000000
  0.046357  0.048184  0.001236      2.000000
  0.092643  0.048286  0.002478      2.000000
 -0.046215  0.047979 -0.001248      2.000000
  0.000143  0.096163 -0.000012      1.000000
  0.046429  0.096266  0.001230      2.000000
  0.092715  0.096368  0.002472      1.000000
  0.000897 -0.000054  0.033816      1.000000
  0.047183  0.000048  0.035059      2.000000
  0.093469  0.000150  0.036301      1.000000
  0.000968  0.048027  0.033810      2.000000
  0.047254  0.048130  0.035052      2.000000
  0.093540  0.048232  0.036295      2.000000
 -0.045318  0.047925  0.032568      2.000000
  0.001039  0.096109  0.033804      1.000000
  0.047325  0.096211  0.035046      2.000000
  0.093611  0.096314  0.036288      1.000000

 I would recommend the setting:
   dimension x,y,z NGX =    35 NGY =   34 NGZ =   97
 SYSTEM =  SrIr2O4 prototype
 POSCAR =  Sr Ir2 O5

 Startparameter for this run:
   NWRITE =      2    write-flag & timer
   PREC   = accura    normal or accurate (medium, high low for compatibility)
   ISTART =      0    job   : 0-new  1-cont  2-samecut
   ICHARG =      2    charge: 1-file 2-atom 10-const
   ISPIN  =      2    spin polarized calculation?
   LNONCOLLINEAR =      F non collinear calculations
   LSORBIT =      F    spin-orbit coupling
   INIWAV =      1    electr: 0-lowe 1-rand  2-diag
   LASPH  =      F    aspherical Exc in radial PAW
   METAGGA=      F    non-selfconsistent MetaGGA calc.

 Electronic Relaxation 1
   ENCUT  =  400.0 eV  29.40 Ry    5.42 a.u.   8.82  8.48 24.14*2*pi/ulx,y,z
   ENINI  =  400.0     initial cutoff
   ENAUG  =  605.4 eV  augmentation charge cutoff
   NELM   =     60;   NELMIN=  2; NELMDL= -5     # of ELM steps
   EDIFF  = 0.1E-06   stopping-criterion for ELM
   LREAL  =      T    real-space projection
   NLSPLINE    = F    spline interpolate recip. space projectors
   LCOMPAT=      F    compatible to vasp.4.4
   GGA_COMPAT  = T    GGA compatible to vasp.4.4-vasp.4.6
   LMAXPAW     = -100 max onsite density
   LMAXMIX     =    2 max onsite mixed and CHGCAR
   VOSKOWN=      0    Vosko Wilk Nusair interpolation
   ROPT   =    1.00000   1.00000   1.00000
 Ionic relaxation
   EDIFFG = 0.1E-04   stopping-criterion for IOM
   NSW    =    901    number of steps for IOM
   NBLOCK =      1;   KBLOCK =    901    inner block; outer block
   IBRION =      2    ionic relax: 0-MD 1-quasi-New 2-CG
   NFREE  =      1    steps in history (QN), initial steepest desc. (CG)
   ISIF   =      3    stress and relaxation
   IWAVPR =     11    prediction:  0-non 1-charg 2-wave 3-comb
   ISYM   =      0    0-nonsym 1-usesym 2-fastsym
   LCORR  =      T    Harris-Foulkes like correction to forces

   POTIM  = 0.5000    time-step for ionic-motion
   TEIN   =    0.0    initial temperature
   TEBEG  =    0.0;   TEEND  =   0.0 temperature during run
   SMASS  =  -3.00    Nose mass-parameter (am)
   estimated Nose-frequenzy (Omega)   =  0.10E-29 period in steps =****** mass=  -0.668E-27a.u.
   SCALEE = 1.0000    scale energy and forces
   NPACO  =    256;   APACO  = 16.0  distance and # of slots for P.C.
   PSTRESS=    0.0 pullay stress
[...]
      4.12261      1.33526      3.43312        -0.011739     -0.008270     -0.012034
      1.87150      1.09996      7.00466         0.001945      0.004720      0.004607
      0.85813      1.60610      0.32503        -0.006709      0.006800      0.002825
      2.83837      2.24088      9.13555         0.004259      0.004179      0.000701
      4.84382      0.15956     12.88645         0.009727      0.007130     -0.000735
      4.95145      0.19753      9.14451        -0.000851     -0.004124      0.002419
      2.84722      2.43598     12.87613         0.003017     -0.006638      0.002470
      3.79363      3.89918     10.90127         0.000101      0.000943      0.013021
      1.20040      1.20639     11.13518         0.000867      0.001255     -0.005254
    total drift:                                0.334994     -0.213023     -0.075551

  FREE ENERGIE OF THE ION-ELECTRON SYSTEM (eV)
  free  energy   TOTEN  =      -183.35677245 eV

  energy  without entropy=     -183.37744009  energy(sigma->0) =     -183.36193936

[...]

 d Force =-0.7634106E-03[-0.177E-02, 0.242E-03]  d Energy =-0.1048753E-02 0.285E-03
 d Force = 0.1514399E+00[ 0.150E+00, 0.153E+00]  d Ewald  = 0.4450399E+00-0.294E+00

 Steepest descent step on ions:
 trial-energy change:    0.001049  1 .order    0.000806   -0.000254    0.001866
  (g-gl).g = 0.254E-03      g.g   = 0.254E-03  gl.gl    = 0.000E+00
 g(Force)  = 0.242E-03   g(Stress)= 0.117E-04 ortho     = 0.000E+00
 gamma     =   0.00000
 trial     =   1.00000
 opt step  =   0.07313  (harmonic =   0.11963) maximal distance =0.00004594
 next E    =  -183.356782   (d E  =  -0.00001)

[...]

 d Force = 0.9226469E-03[ 0.206E-03, 0.164E-02]  d Energy = 0.1038312E-02-0.116E-03
 d Force =-0.1402986E+00[-0.141E+00,-0.139E+00]  d Ewald  =-0.4124177E+00 0.272E+00

 FEWALD executed in parallel

 real space projection operators:
  max/ min on nodes  :        531.41        488.48

[...]

 eigenvalue-minimisations  : 10325
 total energy-change (2. order) :-0.1990065E-06  (-0.1871682E-06)
 number of electron     207.9999995 magnetization      -0.0000040
 augmentation part       32.2643839 magnetization      -0.0000050

[...]

 Broyden mixing:
  rms(total) = 0.26269E-03    rms(broyden)= 0.26251E-03
  rms(prec ) = 0.31186E-03
  weight for this iteration     100.00

 eigenvalues of (default mixing * dielectric matrix)
  average eigenvalue GAMMA=   0.5114
  0.8117  0.2112

[...]

----------------------------------------- Iteration    4(   4)  ---------------------------------------

 eigenvalue-minimisations  :  6041
 total energy-change (2. order) : 0.2800698E-07  (-0.5920190E-08)
 number of electron     207.9999995 magnetization      -0.0000029
 augmentation part       32.2644170 magnetization      -0.0000040

 Free energy of the ion-electron system (eV)
  alpha Z        PSCENC =      1068.18693243
  Ewald energy   TEWEN  =    -11962.72304116
  -Hartree energ DENC   =     -3727.07209414
  -exchange      EXHF   =         0.00000000
  -V(xc)+E(xc)   XCENC  =       461.23718057
  PAW double counting   =     19760.82576744   -19461.11671067
  entropy T*S    EENTRO =         0.02067812
  eigenvalues    EBANDS =     -1092.47506882
  atomic energy  EATOM  =     14769.75958767
  Solvation  Ediel_sol  =         0.00000000
  free energy    TOTEN  =      -183.35676857 eV

  energy without entropy =     -183.37744669  energy(sigma->0) =     -183.36193810

 average (electrostatic) potential at core
  the test charge radii are     1.1929  1.2793  0.7215
  (the norm of the test charge is              1.0000)
       1 -35.8562       2 -36.1570       3 -36.5144       4 -35.9029       5 -55.3614
       6 -55.4967       7 -55.9461       8 -55.9519       9 -55.8425      10 -55.3381
      11 -55.9980      12 -55.9809      13 -72.3378      14 -71.0957      15 -73.2599
      16 -73.0759      17 -73.2767      18 -73.2608      19 -72.6961      20 -72.8957
      21 -71.1042      22 -70.8987      23 -72.8796      24 -73.2998      25 -73.1785
      26 -73.4290      27 -72.8480      28 -72.9655

 E-fermi :   3.9364     XC(G=0): -10.4357     alpha+bet :-10.4080

[...]

 spin component 2

[...]

 k-point    20 :       0.5000    0.5000    0.5000
  band No.  band energies     occupation
      1     -30.5285      1.00000
      2     -30.2116      1.00000
      3     -29.9604      1.00000
      4     -29.9095      1.00000
      5     -16.8895      1.00000
      6     -16.8356      1.00000
      7     -16.7331      1.00000
      8     -16.6201      1.00000
      9     -16.2299      1.00000
     10     -16.1291      1.00000
     11     -15.9036      1.00000
     12     -15.8319      1.00000
     13     -15.8065      1.00000
     14     -15.6690      1.00000
     15     -15.3821      1.00000
     16     -15.3387      1.00000
     17     -15.2068      1.00000
     18     -14.1649      1.00000
     19     -14.1081      1.00000
     20     -13.9994      1.00000
     21     -12.5427      1.00000
     22     -12.4998      1.00000
     23     -12.3607      1.00000
     24     -12.2158      1.00000
     25     -12.1388      1.00000
     26     -12.0370      1.00000
     27     -12.0108      1.00000
     28     -11.9551      1.00000
     29     -11.9192      1.00000
     30     -11.7525      1.00000
     31     -11.5047      1.00000
     32     -11.4042      1.00000
     33      -5.8372      1.00000
     34      -5.7240      1.00000
     35      -5.6794      1.00000
     36      -5.6240      1.00000
     37      -5.5309      1.00000
     38      -5.3535      1.00000
     39      -3.8683      1.00000
     40      -3.8141      1.00000
     41      -3.2452      1.00000
     42      -3.1575      1.00000
     43      -3.1078      1.00000
     44      -2.7885      1.00000
     45      -2.7857      1.00000
     46      -2.6682      1.00000
     47      -2.6589      1.00000
     48      -2.5535      1.00000
     49      -2.4498      1.00000
     50      -2.3671      1.00000
     51      -2.3367      1.00000
     52      -2.2865      1.00000
     53      -2.2106      1.00000
     54      -2.0586      1.00000
     55      -2.0110      1.00000
     56      -1.9450      1.00000
     57      -1.7040      1.00000
     58      -1.6169      1.00000
     59      -1.5146      1.00000
     60      -1.4616      1.00000
[...]
    122       8.2617      0.00000
    123       8.4776      0.00000
    124       9.0386      0.00000
    125       9.0928      0.00000
    126       9.2193      0.00000
    127       9.5689      0.00000
    128       9.7696      0.00000
    129      10.0190      0.00000
    130      10.0706      0.00000
    131      10.1969      0.00000
    132      10.2616      0.00000
    133      10.4368      0.00000
    134      10.4823      0.00000
    135      10.6318      0.00000
    136      10.7415      0.00000

[...]

 soft charge-density along one line, spin component           2
         0         1         2         3         4         5         6         7         8         9
 total charge-density along one line

------------------------ aborting loop because EDIFF is reached ----------------------------------------

[...]

  FORCE on cell =-STRESS in cart. coord.  units (eV):
  Direction    XX          YY          ZZ          XY          YZ          ZX
  Alpha Z  1068.18693  1068.18693  1068.18693
  Ewald   -4860.42337 -4775.53690 -2326.80658   230.35343   -71.39836    63.49515
  Hartree   859.84572   907.29736  1959.93116   128.71985   -44.10872    60.60749
  E(xc)    -964.03563  -963.21106  -956.01855     0.50823    -0.20695    -0.04258
  Local     433.34269   317.66527 -3008.16672  -347.94215   117.42697  -130.74108
  n-local  -632.49782  -637.88394  -631.43920     1.46673     0.88943    -1.39180
  augment   437.41779   433.91101   396.52338    -2.09684    -0.23543     1.16265
  Kinetic  3658.08733  3649.48409  3497.77676   -11.04053    -2.36100     6.92185
  Fock        0.00000     0.00000     0.00000     0.00000     0.00000     0.00000
  Total      -0.07633    -0.08725    -0.01283    -0.03126     0.00594     0.01167
  in kB      -0.29433    -0.33641    -0.04946    -0.12055     0.02290     0.04499

 VOLUME and BASIS-vectors are now :
  energy-cutoff  :      400.00
  volume of cell :      415.53
      direct lattice vectors                 reciprocal lattice vectors
     5.405057203 -0.008011215 -0.143354954     0.185144301  0.000408752  0.004968536
    -0.011711870  5.199514114  0.008669431     0.000284416  0.192326344 -0.000024312
    -0.397078281  0.002457570 14.796265350     0.001793621 -0.000108728  0.067632774

  length of vectors
     5.406963861  5.199534532 14.801592668     0.185211408  0.192326556  0.067656641

 FORCES acting on ions
    electron-ion (+dipol)            ewald-force                    non-local-force                 convergence-correction
   -.445E+01 -.334E+02 -.531E+02   0.326E+01 0.337E+02 0.498E+02   0.121E+01 -.321E+00 0.332E+01   0.215E-03 0.349E-04 0.448E-02
   -.546E+02 0.558E+01 0.414E+02   0.555E+02 -.650E+01 -.394E+02   -.891E+00 0.920E+00 -.205E+01   -.103E-03 -.122E-03 0.299E-02
   0.454E+02 0.872E+02 -.339E+01   -.452E+02 -.851E+02 0.168E+01   -.116E+00 -.212E+01 0.171E+01   0.495E-03 -.206E-03 -.493E-02
   0.771E+01 -.188E+02 0.854E+02   -.642E+01 0.190E+02 -.815E+02   -.127E+01 -.228E+00 -.385E+01   0.470E-04 0.143E-03 -.222E-02
   0.115E+03 0.585E+02 0.210E+02   -.115E+03 -.555E+02 -.205E+02   0.384E+00 -.294E+01 -.470E+00   0.836E-03 -.410E-03 0.197E-02
   -.117E+03 0.783E+02 -.160E+02   0.117E+03 -.745E+02 0.157E+02   -.107E+00 -.375E+01 0.286E+00   -.239E-03 -.287E-03 0.105E-02
   -.396E+02 0.833E+01 -.169E+02   0.398E+02 -.770E+01 0.165E+02   -.229E+00 -.639E+00 0.384E+00   -.231E-03 0.324E-04 0.436E-02
   0.396E+02 -.157E+02 -.684E+01   -.397E+02 0.149E+02 0.721E+01   0.117E+00 0.755E+00 -.381E+00   0.302E-03 -.427E-03 0.440E-02
   0.220E+02 -.481E+02 -.234E+02   -.221E+02 0.459E+02 0.234E+02   0.132E+00 0.219E+01 -.469E-01   -.154E-03 -.201E-03 -.113E-02
   0.232E+02 -.653E+02 0.144E+02   -.236E+02 0.638E+02 -.142E+02   0.363E+00 0.151E+01 -.218E+00   -.782E-03 0.200E-03 -.161E-02
   0.334E+02 0.386E+01 0.163E+02   -.333E+02 -.281E+01 -.162E+02   -.659E-01 -.992E+00 -.160E+00   0.655E-03 0.160E-02 -.464E-02
   -.299E+02 -.329E-01 0.291E+01   0.299E+02 -.729E+00 -.306E+01   0.928E-02 0.757E+00 0.148E+00   -.389E-03 -.584E-03 -.409E-02
   -.117E+03 0.542E+02 -.101E+03   0.135E+03 -.679E+02 0.112E+03   -.180E+02 0.138E+02 -.106E+02   -.820E-03 -.150E-03 -.156E-02
   0.151E+02 -.975E+02 0.692E+02   -.257E+02 0.116E+03 -.759E+02   0.106E+02 -.182E+02 0.670E+01   -.189E-03 0.813E-04 0.311E-03
   -.198E+01 0.598E+02 -.700E+01   0.150E+01 -.662E+02 0.774E+01   0.497E+00 0.640E+01 -.742E+00   0.275E-03 -.183E-03 0.332E-02
   0.251E+02 -.406E+02 -.727E+00   -.235E+02 0.461E+02 0.929E+00   -.160E+01 -.545E+01 -.207E+00   0.383E-03 -.383E-03 0.272E-02
   -.111E+02 0.457E+01 -.955E+01   0.116E+02 -.187E+01 0.976E+01   -.443E+00 -.271E+01 -.218E+00   0.715E-04 0.685E-04 0.341E-02
   0.819E+01 0.260E+01 -.212E+01   -.100E+02 -.518E+01 0.218E+01   0.182E+01 0.258E+01 -.581E-01   -.263E-03 0.283E-03 0.188E-02
   -.153E+02 -.204E+02 -.194E+02   0.172E+02 0.224E+02 0.225E+02   -.187E+01 -.201E+01 -.311E+01   0.199E-03 0.177E-03 0.307E-02
   -.641E+01 -.295E+01 0.623E+01   0.659E+01 0.252E+01 -.122E+02   -.173E+00 0.414E+00 0.593E+01   -.402E-03 -.235E-03 0.257E-02
   0.500E+02 0.991E+02 0.431E+02   -.610E+02 -.115E+03 -.490E+02   0.110E+02 0.160E+02 0.593E+01   0.867E-03 0.836E-03 0.332E-04
   -.159E+02 -.101E+03 -.612E+02   0.252E+02 0.119E+03 0.677E+02   -.933E+01 -.181E+02 -.651E+01   0.218E-03 0.613E-03 0.156E-02
   0.288E+02 -.201E+02 -.754E+01   -.299E+02 0.165E+02 0.666E+01   0.105E+01 0.355E+01 0.881E+00   0.572E-03 0.565E-03 -.379E-02
   0.374E+02 -.351E+01 0.197E+02   -.401E+02 0.555E+01 -.197E+02   0.274E+01 -.204E+01 -.156E-01   0.209E-03 0.893E-04 -.145E-02
   -.216E+02 -.362E+02 -.685E+01   0.203E+02 0.423E+02 0.765E+01   0.134E+01 -.613E+01 -.796E+00   -.499E-03 -.179E-03 -.414E-02
   -.726E+01 0.475E+02 0.115E+02   0.811E+01 -.527E+02 -.121E+02   -.845E+00 0.525E+01 0.551E+00   0.696E-04 0.880E-04 -.209E-02
   0.353E+01 -.226E+01 0.564E+01   -.413E+01 0.342E+01 -.957E+01   0.608E+00 -.118E+01 0.394E+01   -.984E-03 -.110E-02 -.258E-02
   -.782E+01 0.789E+01 -.686E+00   0.882E+01 -.872E+01 0.227E+01   -.987E+00 0.829E+00 -.159E+01   0.447E-03 0.539E-03 -.283E-02
   0.450E+01 0.118E+02 0.116E+01   0.568E-13 -.888E-13 -.220E-12   -.407E+01 -.119E+02 -.124E+01   0.808E-03 0.881E-03 0.107E-02

 POSITION                                       TOTAL-FORCE (eV/Angst)
      2.44862      0.27726      1.65139        -0.000426     -0.003285      0.000514
      0.49201      2.45553      5.54691        -0.005431     -0.004198     -0.006028
      2.12020      4.95011      9.05621        -0.000587     -0.002589      0.000750
      0.16220      2.78783     13.07556         0.001400     -0.002742      0.002914
      5.12626      0.06966     -0.05996        -0.007574      0.000543     -0.006584
      2.87494      2.81686     14.66627        -0.002108     -0.004783      0.000708
     -0.08379      5.12374      3.75510        -0.000526     -0.004029     -0.003771
      2.97538      2.79919      3.58810        -0.006138      0.001675      0.001421
      3.27223      2.37400      7.28780        -0.002914     -0.003354      0.000528
      4.82119      5.14844      7.32071        -0.002608     -0.003746      0.000576
      2.67717      2.39470     11.01960         0.061577      0.070313     -0.006222
      5.05413      0.10636     11.01890        -0.004095     -0.002286     -0.004824
      5.05431      3.23587      7.55756         0.003100     -0.002560     -0.004398
      1.65292      4.24332     14.37514        -0.000578     -0.003786      0.001152
      5.22341      4.97304      1.75482         0.000012     -0.009003     -0.001443
      3.21835      2.74499      5.45137         0.003402     -0.006790      0.000840
      3.06759      2.93295      1.71309        -0.001726      0.000453      0.001474
      5.07673      5.06835      5.47657        -0.005724      0.003721      0.001137
      1.49005      4.01141      3.79108         0.002578      0.004709      0.013020
      4.12259      1.33525      3.43309        -0.015001     -0.011539     -0.011706
      1.87151      1.09998      7.00467        -0.001358      0.001138      0.004679
      0.85813      1.60612      0.32503        -0.009999      0.003021      0.002979
      2.83839      2.24089      9.13554         0.000846      0.000501      0.001022
      4.84384      0.15959     12.88644         0.006134      0.003678     -0.001322
      4.95145      0.19753      9.14451        -0.004167     -0.007597      0.002132
      2.84723      2.43597     12.87613        -0.000473     -0.010467      0.002336
      3.79365      3.89919     10.90129        -0.004067     -0.003883      0.013150
      1.20041      1.20639     11.13516        -0.003548     -0.003115     -0.005031
    total drift:                                0.427726     -0.114319     -0.079948

  FREE ENERGIE OF THE ION-ELECTRON SYSTEM (eV)
  free  energy   TOTEN  =      -183.35676857 eV

  energy  without entropy=     -183.37744669  energy(sigma->0) =     -183.36193810

 d Force = 0.6249841E-05[ 0.478E-05, 0.772E-05]  d Energy = 0.6562552E-05-0.313E-06
 d Force =-0.5295908E-02[-0.530E-02,-0.529E-02]  d Ewald  =-0.1548996E-01 0.102E-01

 reached required accuracy - stopping structural energy minimisation

 total charge

[...]

 magnetization (x)

# of ion     s       p       d       tot
  1       -0.000  -0.000  -0.000  -0.000
  2        0.000   0.000   0.000   0.000
  3       -0.000   0.000   0.000   0.000
  4       -0.000  -0.000  -0.000  -0.000
  5       -0.000  -0.000  -0.000  -0.000
  6       -0.000  -0.000  -0.000  -0.000
  7        0.000   0.000   0.000   0.000
  8        0.000   0.000   0.000   0.000
  9        0.000   0.000   0.000   0.000
 10        0.000   0.000   0.000   0.000
 11       -0.000  -0.000   0.000   0.000
 12       -0.000  -0.000   0.000   0.000
 13       -0.000   0.000   0.000   0.000
 14        0.000  -0.000   0.000  -0.000
 15        0.000  -0.000   0.000  -0.000
 16       -0.000   0.000   0.000   0.000
 17        0.000  -0.000   0.000  -0.000
 18       -0.000   0.000   0.000   0.000
 19       -0.000   0.000   0.000   0.000
 20        0.000   0.000   0.000   0.000
 21        0.000   0.000   0.000   0.000
 22        0.000  -0.000   0.000  -0.000
 23        0.000   0.000   0.000   0.000
 24        0.000  -0.000   0.000  -0.000
 25        0.000   0.000   0.000   0.000
 26        0.000  -0.000   0.000  -0.000
 27        0.000   0.000   0.000   0.000
 28        0.000   0.000   0.000   0.000
tot        0.000   0.000   0.000   0.000